p tw 1072 1276
1 37
1 1001
2 38
2 1002
3 55
3 1003
4 56
4 1004
5 39
5 1005
6 40
6 1006
7 57
7 1007
8 58
8 1008
9 41
9 1009
10 42
10 1010
11 59
11 1011
12 60
12 1012
13 43
13 1013
14 44
14 1014
15 61
15 1015
16 62
16 1016
17 45
17 1017
18 46
18 1018
19 63
19 1019
20 64
20 1020
21 47
21 1021
22 48
22 1022
23 65
23 1023
24 66
24 1024
25 49
25 1025
26 50
26 1026
27 67
27 1027
28 68
28 1028
29 51
29 1029
30 52
30 1030
31 69
31 1031
32 70
32 1032
33 53
33 1033
34 54
34 1034
35 71
35 1035
36 72
36 1036
37 38
37 85
38 86
39 40
39 87
40 88
41 42
41 77
42 89
43 44
43 74
44 90
45 46
45 82
46 91
47 48
47 92
48 79
49 50
49 93
50 76
51 52
51 94
52 84
53 54
53 95
54 96
55 98
56 154
57 73
58 156
59 81
60 158
61 78
62 135
63 161
64 75
65 104
66 83
67 106
68 80
69 128
70 168
71 108
72 170
73 74
73 112
74 114
75 76
75 117
76 105
77 78
77 113
78 102
79 80
79 103
80 121
81 82
81 100
82 115
83 84
83 119
84 123
85 109
86 97
87 110
88 111
89 99
90 101
91 116
92 118
93 120
94 122
95 124
96 107
97 98
97 143
98 131
99 100
99 144
100 138
101 102
101 129
102 146
103 104
103 136
104 148
105 106
105 149
106 133
107 108
107 152
108 140
109 125
110 137
111 255
112 126
113 132
114 145
115 147
116 141
117 130
118 188
119 142
120 127
121 150
122 139
123 151
124 134
125 126
125 171
126 155
127 128
127 179
128 167
129 130
129 176
130 162
131 132
131 153
132 174
133 134
133 165
134 182
135 136
135 160
136 178
137 138
137 173
138 157
139 140
139 181
140 169
141 142
141 177
142 164
143 172
144 175
145 241
146 159
147 218
148 163
149 180
150 166
151 257
152 183
153 154
153 197
154 198
155 156
155 200
156 186
157 158
157 202
158 194
159 160
159 203
160 191
161 162
161 184
162 204
163 164
163 192
164 206
165 166
165 189
166 207
167 168
167 208
168 209
169 170
169 211
170 212
171 196
172 243
173 199
174 201
175 190
176 187
177 195
178 205
179 185
180 245
181 193
182 210
183 252
184 185
184 233
185 236
186 187
186 215
187 230
188 189
188 220
189 237
190 191
190 227
191 217
192 193
192 234
193 222
194 195
194 229
195 232
196 269
197 225
198 213
199 214
200 226
201 216
202 228
203 231
204 219
205 280
206 235
207 221
208 238
209 223
210 224
211 239
212 240
213 214
213 249
214 259
215 216
215 244
216 260
217 218
217 262
218 253
219 220
219 264
220 248
221 222
221 251
222 267
223 224
223 246
224 268
225 330
226 298
227 250
228 306
229 256
230 261
231 247
232 263
233 242
234 254
235 308
236 265
237 266
238 360
239 340
240 258
241 242
241 275
242 292
243 244
243 270
244 288
245 246
245 282
246 296
247 248
247 290
248 279
249 250
249 287
250 274
251 252
251 295
252 286
253 254
253 277
254 294
255 256
255 272
256 289
257 258
257 284
258 297
259 271
260 273
261 276
262 291
263 278
264 293
265 281
266 338
267 283
268 285
269 270
269 310
270 311
271 272
271 313
272 314
273 274
273 302
274 316
275 276
275 299
276 318
277 278
277 307
278 319
279 280
279 321
280 304
281 282
281 323
282 301
283 284
283 324
284 309
285 286
285 326
286 327
287 312
288 315
289 317
290 303
291 367
292 320
293 300
294 322
295 305
296 325
297 328
298 299
298 344
299 346
300 301
300 349
301 337
302 303
302 345
303 334
304 305
304 335
305 353
306 307
306 332
307 347
308 309
308 351
309 355
310 341
311 329
312 386
313 342
314 343
315 388
316 331
317 390
318 333
319 348
320 393
321 350
322 336
323 352
324 354
325 400
326 356
327 339
328 402
329 330
329 375
330 363
331 332
331 376
332 370
333 334
333 361
334 378
335 336
335 368
336 380
337 338
337 381
338 365
339 340
339 384
340 372
341 357
342 369
343 487
344 358
345 364
346 377
347 379
348 373
349 362
350 420
351 374
352 359
353 382
354 371
355 383
356 366
357 358
357 403
358 387
359 360
359 411
360 399
361 362
361 408
362 394
363 364
363 385
364 406
365 366
365 397
366 414
367 368
367 392
368 410
369 370
369 405
370 389
371 372
371 413
372 401
373 374
373 409
374 396
375 404
376 407
377 473
378 391
379 450
380 395
381 412
382 398
383 489
384 415
385 386
385 429
386 430
387 388
387 432
388 418
389 390
389 434
390 426
391 392
391 435
392 423
393 394
393 416
394 436
395 396
395 424
396 438
397 398
397 421
398 439
399 400
399 440
400 441
401 402
401 443
402 444
403 428
404 475
405 431
406 433
407 422
408 419
409 427
410 437
411 417
412 477
413 425
414 442
415 484
416 417
416 465
417 468
418 419
418 447
419 462
420 421
420 452
421 469
422 423
422 459
423 449
424 425
424 466
425 454
426 427
426 461
427 464
428 501
429 457
430 445
431 446
432 458
433 448
434 460
435 463
436 451
437 512
438 467
439 453
440 470
441 455
442 456
443 471
444 472
445 446
445 481
446 491
447 448
447 476
448 492
449 450
449 494
450 485
451 452
451 496
452 480
453 454
453 483
454 499
455 456
455 478
456 500
457 562
458 530
459 482
460 538
461 488
462 493
463 479
464 495
465 474
466 486
467 540
468 497
469 498
470 592
471 572
472 490
473 474
473 507
474 524
475 476
475 502
476 520
477 478
477 514
478 528
479 480
479 522
480 511
481 482
481 519
482 506
483 484
483 527
484 518
485 486
485 509
486 526
487 488
487 504
488 521
489 490
489 516
490 529
491 503
492 505
493 508
494 523
495 510
496 525
497 513
498 570
499 515
500 517
501 502
501 542
502 543
503 504
503 545
504 546
505 506
505 534
506 548
507 508
507 531
508 550
509 510
509 539
510 551
511 512
511 553
512 536
513 514
513 555
514 533
515 516
515 556
516 541
517 518
517 558
518 559
519 544
520 547
521 549
522 535
523 599
524 552
525 532
526 554
527 537
528 557
529 560
530 531
530 576
531 578
532 533
532 581
533 569
534 535
534 577
535 566
536 537
536 567
537 585
538 539
538 564
539 579
540 541
540 583
541 587
542 573
543 561
544 618
545 574
546 575
547 620
548 563
549 622
550 565
551 580
552 625
553 582
554 568
555 584
556 586
557 632
558 588
559 571
560 634
561 562
561 607
562 595
563 564
563 608
564 602
565 566
565 593
566 610
567 568
567 600
568 612
569 570
569 613
570 597
571 572
571 616
572 604
573 589
574 601
575 719
576 590
577 596
578 609
579 611
580 605
581 594
582 652
583 606
584 591
585 614
586 603
587 615
588 598
589 590
589 635
590 619
591 592
591 643
592 631
593 594
593 640
594 626
595 596
595 617
596 638
597 598
597 629
598 646
599 600
599 624
600 642
601 602
601 637
602 621
603 604
603 645
604 633
605 606
605 641
606 628
607 636
608 639
609 705
610 623
611 682
612 627
613 644
614 630
615 721
616 647
617 618
617 661
618 662
619 620
619 664
620 650
621 622
621 666
622 658
623 624
623 667
624 655
625 626
625 648
626 668
627 628
627 656
628 670
629 630
629 653
630 671
631 632
631 672
632 673
633 634
633 675
634 676
635 660
636 707
637 663
638 665
639 654
640 651
641 659
642 669
643 649
644 709
645 657
646 674
647 716
648 649
648 697
649 700
650 651
650 679
651 694
652 653
652 684
653 701
654 655
654 691
655 681
656 657
656 698
657 686
658 659
658 693
659 696
660 733
661 689
662 677
663 678
664 690
665 680
666 692
667 695
668 683
669 744
670 699
671 685
672 702
673 687
674 688
675 703
676 704
677 678
677 713
678 723
679 680
679 708
680 724
681 682
681 726
682 717
683 684
683 728
684 712
685 686
685 715
686 731
687 688
687 710
688 732
689 794
690 762
691 714
692 770
693 720
694 725
695 711
696 727
697 706
698 718
699 772
700 729
701 730
702 824
703 804
704 722
705 706
705 739
706 756
707 708
707 734
708 752
709 710
709 746
710 760
711 712
711 754
712 743
713 714
713 751
714 738
715 716
715 759
716 750
717 718
717 741
718 758
719 720
719 736
720 753
721 722
721 748
722 761
723 735
724 737
725 740
726 755
727 742
728 757
729 745
730 802
731 747
732 749
733 734
733 774
734 775
735 736
735 777
736 778
737 738
737 766
738 780
739 740
739 763
740 782
741 742
741 771
742 783
743 744
743 785
744 768
745 746
745 787
746 765
747 748
747 788
748 773
749 750
749 790
750 791
751 776
752 779
753 781
754 767
755 831
756 784
757 764
758 786
759 769
760 789
761 792
762 763
762 808
763 810
764 765
764 813
765 801
766 767
766 809
767 798
768 769
768 799
769 817
770 771
770 796
771 811
772 773
772 815
773 819
774 805
775 793
776 850
777 806
778 807
779 852
780 795
781 854
782 797
783 812
784 857
785 814
786 800
787 816
788 818
789 864
790 820
791 803
792 866
793 794
793 839
794 827
795 796
795 840
796 834
797 798
797 825
798 842
799 800
799 832
800 844
801 802
801 845
802 829
803 804
803 848
804 836
805 821
806 833
807 951
808 822
809 828
810 841
811 843
812 837
813 826
814 884
815 838
816 823
817 846
818 835
819 847
820 830
821 822
821 867
822 851
823 824
823 875
824 863
825 826
825 872
826 858
827 828
827 849
828 870
829 830
829 861
830 878
831 832
831 856
832 874
833 834
833 869
834 853
835 836
835 877
836 865
837 838
837 873
838 860
839 868
840 871
841 937
842 855
843 914
844 859
845 876
846 862
847 953
848 879
849 850
849 893
850 894
851 852
851 896
852 882
853 854
853 898
854 890
855 856
855 899
856 887
857 858
857 880
858 900
859 860
859 888
860 902
861 862
861 885
862 903
863 864
863 904
864 905
865 866
865 907
866 908
867 892
868 939
869 895
870 897
871 886
872 883
873 891
874 901
875 881
876 941
877 889
878 906
879 948
880 881
880 929
881 932
882 883
882 911
883 926
884 885
884 916
885 933
886 887
886 923
887 913
888 889
888 930
889 918
890 891
890 925
891 928
892 965
893 921
894 909
895 910
896 922
897 912
898 924
899 927
900 915
901 986
902 931
903 917
904 934
905 919
906 920
907 935
908 936
909 910
909 945
910 955
911 912
911 940
912 956
913 914
913 958
914 949
915 916
915 960
916 944
917 918
917 947
918 963
919 920
919 942
920 964
921 967
922 971
923 946
924 975
925 952
926 957
927 943
928 959
929 938
930 950
931 988
932 961
933 962
934 995
935 999
936 954
937 938
937 977
938 983
939 940
939 966
940 972
941 942
941 990
942 996
943 944
943 979
944 985
945 946
945 968
946 974
947 948
947 992
948 998
949 950
949 981
950 987
951 952
951 970
952 976
953 954
953 994
954 1000
955 969
956 973
957 978
958 980
959 982
960 984
961 989
962 991
963 993
964 997
965 1037
966 1038
967 1039
968 1040
969 1041
970 1042
971 1043
972 1044
973 1045
974 1046
975 1047
976 1048
977 1049
978 1050
979 1051
980 1052
981 1053
982 1054
983 1055
984 1056
985 1057
986 1058
987 1059
988 1060
989 1061
990 1062
991 1063
992 1064
993 1065
994 1066
995 1067
996 1068
997 1069
998 1070
999 1071
1000 1072
